p cnf 350 635
1 0
-350 0
-344 0
-338 0
-332 0
-326 0
-320 0
-314 0
-308 0
-302 0
-296 0
-290 0
-284 0
-278 0
-272 0
-266 0
-260 0
-250 0
-251 0
-252 0
-253 0
-254 0
-247 0
-248 0
2 0
-349 0
10 0
11 0
12 0
13 0
14 0
-19 0
-20 0
28 0
29 0
37 0
-241 0
-242 0
-46 0
-47 0
-343 0
-48 0
55 0
-64 0
-73 0
-74 0
82 0
83 0
91 0
92 0
100 0
109 0
110 0
-235 0
-236 0
111 0
-337 0
118 0
-127 0
-128 0
-129 0
-130 0
136 0
-153 0
-154 0
-155 0
-156 0
-157 0
-158 0
-256 0
-229 0
-230 0
-257 0
-331 0
-258 0
-259 0
-164 0
-170 0
-176 0
-223 0
-224 0
-325 0
-182 0
-188 0
-194 0
-200 0
-206 0
-217 0
-218 0
-212 0
-319 0
-211 0
-246 0
-348 0
-240 0
-342 0
-234 0
-336 0
-160 0
-161 0
-228 0
-162 0
-313 0
-330 0
-163 0
-263 0
-264 0
-265 0
-222 0
-205 0
-216 0
-324 0
-199 0
-307 0
-245 0
-347 0
-239 0
-341 0
-233 0
-335 0
-318 0
-210 0
-227 0
-329 0
-301 0
-312 0
-167 0
-168 0
-169 0
-270 0
-271 0
-221 0
-193 0
-204 0
-323 0
-187 0
-295 0
-244 0
-306 0
-346 0
-238 0
-340 0
-232 0
-334 0
-198 0
-226 0
-192 0
-289 0
-300 0
-328 0
-174 0
-175 0
-277 0
-215 0
-220 0
-181 0
-317 0
-294 0
-283 0
-214 0
-209 0
-186 0
-311 0
-288 0
-322 0
-180 0
-316 0
-203 0
-282 0
-197 0
-276 0
-208 0
-310 0
-299 0
-191 0
-293 0
-305 0
-185 0
-202 0
-179 0
-304 0
-173 0
-269 0
-281 0
-287 0
-275 0
-196 0
-190 0
-184 0
-292 0
-178 0
-172 0
-280 0
-298 0
-286 0
-274 0
-166 0
-268 0
-262 0
-327 -225 0
-225 231 0
-207 213 0
146 3 0
-159 165 0
-261 -159 0
-146 -3 0
4 -3 0
-4 3 0
148 -4 5 0
-148 4 5 0
148 4 -5 0
-148 -4 -5 0
149 -5 6 0
-149 5 6 0
149 5 -6 0
-149 -5 -6 0
150 -6 7 0
-150 6 7 0
150 6 -7 0
-150 -6 -7 0
8 -7 0
-8 7 0
9 -8 0
-9 8 0
54 -285 0
-54 285 0
72 -297 0
285 -183 189 0
-285 183 189 0
-72 297 0
108 -321 0
297 -195 201 0
-297 195 201 0
149 15 0
-165 171 0
-27 267 0
-149 -15 0
16 -15 0
-16 15 0
17 -16 0
-17 16 0
152 -17 18 0
-152 17 18 0
152 17 -18 0
-152 -17 -18 0
-243 249 0
-345 -243 0
27 -267 0
285 183 -189 0
-146 21 0
146 -21 0
-309 207 213 0
147 -21 22 0
-147 21 22 0
147 21 -22 0
-147 -21 -22 0
23 -22 0
-23 22 0
24 -23 0
-24 23 0
25 -24 0
-25 24 0
26 -25 0
-26 25 0
27 -26 0
-27 26 0
-297 -195 0
-345 -243 -249 0
345 243 -249 0
146 30 0
-345 243 249 0
345 -243 249 0
-146 -30 0
147 -30 31 0
-147 30 31 0
147 30 -31 0
-147 -30 -31 0
32 -31 0
-32 31 0
33 -32 0
-33 32 0
34 -33 0
-34 33 0
151 -34 35 0
-151 34 35 0
151 34 -35 0
-151 -34 -35 0
152 -35 36 0
-152 35 36 0
152 35 -36 0
-152 -35 -36 0
-144 345 0
145 38 0
144 -345 0
-213 219 0
-145 -38 0
146 -38 39 0
-146 38 39 0
146 38 -39 0
-146 -38 -39 0
147 -39 40 0
-147 39 40 0
147 39 -40 0
-147 -39 -40 0
41 -40 0
-41 40 0
149 -41 42 0
-149 41 42 0
149 41 -42 0
-149 -41 -42 0
43 -42 0
-43 42 0
151 -43 44 0
-151 43 44 0
151 43 -44 0
-151 -43 -44 0
152 -44 45 0
-152 44 45 0
152 44 -45 0
-152 -44 -45 0
-315 -213 0
-273 -171 -177 0
273 171 -177 0
-195 201 0
-177 183 0
309 207 -213 0
-147 49 0
147 -49 0
-267 -165 0
50 -49 0
-50 49 0
51 -50 0
-51 50 0
150 -51 52 0
-150 51 52 0
150 51 -52 0
-150 -51 -52 0
151 -52 53 0
-151 52 53 0
151 52 -53 0
-151 -52 -53 0
54 -53 0
-54 53 0
-285 -183 -189 0
145 56 0
-327 225 231 0
327 -225 231 0
-145 -56 0
146 -56 57 0
-146 56 57 0
146 56 -57 0
-146 -56 -57 0
147 -57 58 0
-147 57 58 0
147 57 -58 0
-147 -57 -58 0
59 -58 0
-59 58 0
60 -59 0
-60 59 0
150 -60 61 0
-150 60 61 0
150 60 -61 0
-150 -60 -61 0
151 -61 62 0
-151 61 62 0
151 61 -62 0
-151 -61 -62 0
63 -62 0
-63 62 0
-279 -177 0
-273 171 177 0
-145 65 0
145 -65 0
273 -171 177 0
146 -65 66 0
-146 65 66 0
146 65 -66 0
-146 -65 -66 0
67 -66 0
-67 66 0
68 -67 0
-68 67 0
69 -68 0
-69 68 0
150 -69 70 0
-150 69 70 0
150 69 -70 0
-150 -69 -70 0
71 -70 0
-71 70 0
152 -71 72 0
-152 71 72 0
152 71 -72 0
-152 -71 -72 0
-36 273 0
36 -273 0
-261 -159 -165 0
45 -279 0
-146 75 0
146 -75 0
-285 -183 0
76 -75 0
-76 75 0
77 -76 0
-77 76 0
149 -77 78 0
-149 77 78 0
149 77 -78 0
-149 -77 -78 0
150 -78 79 0
-150 78 79 0
150 78 -79 0
-150 -78 -79 0
80 -79 0
-80 79 0
81 -80 0
-81 80 0
297 195 -201 0
-237 243 0
-339 -237 0
146 84 0
261 159 -165 0
-297 -195 -201 0
-146 -84 0
85 -84 0
-85 84 0
86 -85 0
-86 85 0
149 -86 87 0
-149 86 87 0
149 86 -87 0
-149 -86 -87 0
150 -87 88 0
-150 87 88 0
150 87 -88 0
-150 -87 -88 0
151 -88 89 0
-151 88 89 0
151 88 -89 0
-151 -88 -89 0
90 -89 0
-90 89 0
-189 195 0
-291 -189 0
-261 159 165 0
146 93 0
261 -159 165 0
-339 -237 -243 0
-146 -93 0
147 -93 94 0
-147 93 94 0
147 93 -94 0
-147 -93 -94 0
95 -94 0
-95 94 0
96 -95 0
-96 95 0
150 -96 97 0
-150 96 97 0
150 96 -97 0
-150 -96 -97 0
98 -97 0
-98 97 0
99 -98 0
-99 98 0
339 237 -243 0
145 101 0
-339 237 243 0
339 -237 243 0
-145 -101 0
102 -101 0
-102 101 0
147 -102 103 0
-147 102 103 0
147 102 -103 0
-147 -102 -103 0
104 -103 0
-104 103 0
105 -104 0
-105 104 0
106 -105 0
-106 105 0
107 -106 0
-107 106 0
108 -107 0
-108 107 0
-135 339 0
135 -339 0
-315 -213 -219 0
315 213 -219 0
-315 213 219 0
147 112 0
315 -213 219 0
90 -309 0
-147 -112 0
148 -112 113 0
-148 112 113 0
148 112 -113 0
-148 -112 -113 0
149 -113 114 0
-149 113 114 0
149 113 -114 0
-149 -113 -114 0
150 -114 115 0
-150 114 115 0
150 114 -115 0
-150 -114 -115 0
116 -115 0
-116 115 0
117 -116 0
-117 116 0
-201 207 0
145 119 0
-303 -201 0
327 225 -231 0
-145 -119 0
146 -119 120 0
-146 119 120 0
146 119 -120 0
-146 -119 -120 0
121 -120 0
-121 120 0
122 -121 0
-122 121 0
149 -122 123 0
-149 122 123 0
149 122 -123 0
-149 -122 -123 0
124 -123 0
-124 123 0
151 -124 125 0
-151 124 125 0
151 124 -125 0
-151 -124 -125 0
152 -125 126 0
-152 125 126 0
152 125 -126 0
-152 -125 -126 0
-99 315 0
99 -315 0
-45 279 0
-90 309 0
-327 -225 -231 0
-279 177 183 0
279 177 -183 0
-309 -207 -213 0
-148 131 0
148 -131 0
-171 177 0
132 -131 0
-132 131 0
133 -132 0
-133 132 0
151 -133 134 0
-151 133 134 0
151 133 -134 0
-151 -133 -134 0
152 -134 135 0
-152 134 135 0
152 134 -135 0
-152 -134 -135 0
309 -207 213 0
145 137 0
117 -327 0
-18 261 0
-145 -137 0
146 -137 138 0
-146 137 138 0
146 137 -138 0
-146 -137 -138 0
147 -138 139 0
-147 138 139 0
147 138 -139 0
-147 -138 -139 0
140 -139 0
-140 139 0
149 -140 141 0
-149 140 141 0
149 140 -141 0
-149 -140 -141 0
150 -141 142 0
-150 141 142 0
150 141 -142 0
-150 -141 -142 0
151 -142 143 0
-151 142 143 0
151 142 -143 0
-151 -142 -143 0
152 -143 144 0
-152 143 144 0
152 143 -144 0
-152 -143 -144 0
-231 237 0
-333 -231 0
279 -177 183 0
-183 189 0
-291 -189 -195 0
291 189 -195 0
9 -255 0
-9 255 0
-291 189 195 0
-255 159 0
255 -159 0
291 -189 195 0
-333 -231 -237 0
18 -261 0
-303 -201 -207 0
333 231 -237 0
303 201 -207 0
-333 231 237 0
333 -231 237 0
-126 333 0
126 -333 0
-303 201 207 0
303 -201 207 0
-81 303 0
81 -303 0
267 -165 171 0
-108 321 0
321 -219 225 0
-321 219 225 0
321 219 -225 0
-279 -177 -183 0
-321 -219 -225 0
-117 327 0
-309 -207 0
-267 165 171 0
-63 291 0
63 -291 0
-219 225 0
267 165 -171 0
-321 -219 0
-267 -165 -171 0
-273 -171 0
